amountOfEmployees = 75;
horizonLength = 7;
amountOfShifts = 4;

shiftsPerDay = [|1,8,0,0,
|2,9,0,0,
|4,19,0,0,
|2,1,18,0,
|3,17,0,0,
|0,1,8,0,
|2,10,0,0,
|];

preferences = array3d(1..75,1..7,1..4,[2,1,2,1,1,2,3,3,3,2,2,2,1,2,3,3,3,2,2,2,3,2,2,2,2,1,2,1,2,2,2,2,2,3,1,1,2,2,2,2,2,3,1,1,2,2,2,2,2,2,2,2,2,2,2,2,2,2,2,3,3,2,2,2,2,2,2,2,3,2,2,2,2,2,2,2,2,2,2,2,2,2,2,3,2,2,2,2,3,2,1,1,2,2,2,2,3,2,1,1,2,2,2,2,2,2,2,2,2,2,2,2,1,2,1,2,1,2,3,3,1,1,1,1,1,2,3,3,1,1,1,1,1,1,1,1,1,2,1,2,3,1,3,3,1,2,1,1,2,3,3,3,1,2,1,1,2,3,3,3,2,3,3,3,3,1,3,3,2,1,2,2,1,3,1,1,3,2,2,2,1,3,1,1,3,2,2,2,3,2,2,2,2,1,2,2,3,2,3,2,1,3,1,1,1,3,3,3,1,3,1,1,1,3,3,3,1,3,3,3,3,2,3,2,2,2,2,1,1,3,1,1,2,2,2,2,1,3,1,1,2,2,2,2,2,2,2,2,2,2,2,1,2,1,2,3,3,2,3,3,2,2,2,2,3,2,3,3,2,2,2,2,2,2,2,2,2,1,2,3,3,2,3,2,1,2,1,1,1,3,3,3,1,2,1,1,1,3,3,3,1,3,3,3,3,2,3,2,1,2,1,2,1,3,1,1,2,1,1,1,1,3,1,1,2,1,1,1,2,1,1,1,1,2,1,2,3,3,3,1,1,2,1,1,1,3,3,3,1,2,1,1,1,3,3,3,1,3,3,3,3,3,3,1,3,1,3,3,3,3,3,3,1,3,3,3,3,3,3,3,1,3,3,3,1,3,3,3,3,1,3,3,1,1,1,1,2,2,2,2,2,1,1,1,2,2,2,2,2,1,1,1,2,1,1,1,1,1,1,1,1,3,1,1,1,3,1,1,1,1,1,1,1,3,1,1,1,1,1,1,1,1,1,1,1,3,1,1,3,2,3,2,3,2,3,3,1,3,3,3,3,2,3,3,1,3,3,3,1,3,3,3,3,2,3,2,1,1,1,2,1,2,1,1,2,1,1,1,1,2,1,1,2,1,1,1,2,1,1,1,1,1,1,2,2,1,2,2,3,3,3,3,3,2,2,2,3,3,3,3,3,2,2,2,3,2,2,2,2,1,2,2,1,1,1,3,1,1,1,1,3,1,1,1,1,1,1,1,3,1,1,1,3,1,1,1,1,1,1,3,3,3,3,1,2,3,2,2,2,3,3,3,2,3,2,2,2,3,3,3,2,3,3,3,3,3,3,1,1,2,1,2,1,2,1,1,3,1,1,1,1,2,1,1,3,1,1,1,3,1,1,1,1,2,1,2,2,2,2,2,3,2,3,3,2,2,2,2,3,2,3,3,2,2,2,2,2,2,2,2,2,2,2,2,3,1,3,1,1,3,1,1,2,3,3,3,1,3,1,1,2,3,3,3,2,3,3,3,3,1,3,1,2,3,2,1,3,3,3,3,2,2,2,2,3,3,3,3,2,2,2,2,2,2,2,2,2,3,2,1,2,3,2,1,1,1,1,1,1,2,2,2,1,1,1,1,1,2,2,2,1,2,2,2,2,3,2,1,1,1,1,1,3,2,3,3,2,1,1,1,3,2,3,3,2,1,1,1,2,1,1,1,1,1,1,1,1,2,1,2,1,2,1,1,3,1,1,1,1,2,1,1,3,1,1,1,3,1,1,1,1,2,1,2,1,1,1,1,3,2,3,3,3,1,1,1,3,2,3,3,3,1,1,1,3,1,1,1,1,1,1,1,2,2,2,2,1,3,1,1,2,2,2,2,1,3,1,1,2,2,2,2,2,2,2,2,2,2,2,2,1,1,1,1,1,3,1,1,3,1,1,1,1,3,1,1,3,1,1,1,3,1,1,1,1,1,1,1,2,2,2,2,3,1,3,3,3,2,2,2,3,1,3,3,3,2,2,2,3,2,2,2,2,2,2,2,1,1,1,2,3,3,3,3,2,1,1,1,3,3,3,3,2,1,1,1,2,1,1,1,1,1,1,2,1,2,1,1,2,2,2,2,3,1,1,1,2,2,2,2,3,1,1,1,3,1,1,1,1,2,1,1,1,1,1,2,1,3,1,1,2,1,1,1,1,3,1,1,2,1,1,1,2,1,1,1,1,1,1,2,1,2,1,1,3,2,3,3,3,1,1,1,3,2,3,3,3,1,1,1,3,1,1,1,1,2,1,1,2,2,2,1,3,1,3,3,2,2,2,2,3,1,3,3,2,2,2,2,2,2,2,2,2,2,2,1,1,2,1,1,1,3,1,1,3,1,1,1,1,3,1,1,3,1,1,1,3,1,1,1,1,2,1,1,1,2,1,1,2,3,2,2,2,1,1,1,2,3,2,2,2,1,1,1,2,1,1,1,1,2,1,1,2,1,2,1,3,3,3,3,1,2,2,2,3,3,3,3,1,2,2,2,1,2,2,2,2,1,2,1,2,2,2,2,3,3,3,3,3,2,2,2,3,3,3,3,3,2,2,2,3,2,2,2,2,2,2,2,1,2,1,2,1,3,1,1,3,1,1,1,1,3,1,1,3,1,1,1,3,1,1,1,1,2,1,2,2,2,2,2,2,2,2,2,2,2,2,2,2,2,2,2,2,2,2,2,2,2,2,2,2,2,2,2,1,1,1,1,3,3,3,3,1,1,1,1,3,3,3,3,1,1,1,1,1,1,1,1,1,1,1,1,1,2,1,2,1,3,1,1,3,1,1,1,1,3,1,1,3,1,1,1,3,1,1,1,1,2,1,2,2,3,2,2,1,1,1,1,3,2,2,2,1,1,1,1,3,2,2,2,3,2,2,2,2,3,2,2,3,1,3,1,3,3,3,3,2,3,3,3,3,3,3,3,2,3,3,3,2,3,3,3,3,1,3,1,2,2,2,2,1,2,1,1,3,2,2,2,1,2,1,1,3,2,2,2,3,2,2,2,2,2,2,2,1,3,1,3,3,2,3,3,3,1,1,1,3,2,3,3,3,1,1,1,3,1,1,1,1,3,1,3,1,1,1,2,1,3,1,1,3,1,1,1,1,3,1,1,3,1,1,1,3,1,1,1,1,1,1,2,1,3,1,2,3,3,3,3,2,1,1,1,3,3,3,3,2,1,1,1,2,1,1,1,1,3,1,2,2,2,2,2,1,2,1,1,2,2,2,2,1,2,1,1,2,2,2,2,2,2,2,2,2,2,2,2,1,2,1,1,3,2,3,3,2,1,1,1,3,2,3,3,2,1,1,1,2,1,1,1,1,2,1,1,2,2,2,3,1,3,1,1,3,2,2,2,1,3,1,1,3,2,2,2,3,2,2,2,2,2,2,3,1,1,1,2,1,3,1,1,3,1,1,1,1,3,1,1,3,1,1,1,3,1,1,1,1,1,1,2,1,1,1,1,3,1,3,3,3,1,1,1,3,1,3,3,3,1,1,1,3,1,1,1,1,1,1,1,2,3,2,2,3,2,3,3,3,2,2,2,3,2,3,3,3,2,2,2,3,2,2,2,2,3,2,2,2,1,2,1,3,3,3,3,3,2,2,2,3,3,3,3,3,2,2,2,3,2,2,2,2,1,2,1,2,2,2,2,2,3,2,2,3,2,2,2,2,3,2,2,3,2,2,2,3,2,2,2,2,2,2,2,2,2,2,2,1,1,1,1,3,2,2,2,1,1,1,1,3,2,2,2,3,2,2,2,2,2,2,2,1,1,1,3,1,2,1,1,2,1,1,1,1,2,1,1,2,1,1,1,2,1,1,1,1,1,1,3,2,2,2,2,1,3,1,1,2,2,2,2,1,3,1,1,2,2,2,2,2,2,2,2,2,2,2,2,3,2,3,1,1,3,1,1,3,3,3,3,1,3,1,1,3,3,3,3,3,3,3,3,3,2,3,1,1,1,1,1,3,2,3,3,2,1,1,1,3,2,3,3,2,1,1,1,2,1,1,1,1,1,1,1,1,1,1,1,1,3,1,1,3,1,1,1,1,3,1,1,3,1,1,1,3,1,1,1,1,1,1,1,2,2,2,2,2,2,2,2,2,2,2,2,2,2,2,2,2,2,2,2,2,2,2,2,2,2,2,2,2,2,2,2,2,2,2,2,3,2,2,2,2,2,2,2,3,2,2,2,3,2,2,2,2,2,2,2,2,2,2,2,3,2,3,3,2,2,2,2,3,2,3,3,2,2,2,2,2,2,2,2,2,2,2,2,2,2,2,3,3,2,3,3,3,2,2,2,3,2,3,3,3,2,2,2,3,2,2,2,2,2,2,3,1,1,1,2,1,3,1,1,3,1,1,1,1,3,1,1,3,1,1,1,3,1,1,1,1,1,1,2,1,1,1,2,1,1,1,1,3,1,1,1,1,1,1,1,3,1,1,1,3,1,1,1,1,1,1,2,2,2,2,3,3,1,3,3,2,2,2,2,3,1,3,3,2,2,2,2,2,2,2,2,2,2,2,3,1,1,1,1,2,2,2,2,2,1,1,1,2,2,2,2,2,1,1,1,2,1,1,1,1,1,1,1,2,3,2,2,1,1,1,1,3,2,2,2,1,1,1,1,3,2,2,2,3,2,2,2,2,3,2,2,1,2,1,1,3,3,3,3,2,1,1,1,3,3,3,3,2,1,1,1,2,1,1,1,1,2,1,1,]);

minShifts = 5;
maxShifts = 5;
minConsecShifts = 2;
maxConsecShifts = 5;

minConsecSameShifts = [2,2,2,1];
maxConsecSameShifts = [3,3,3,2];

minPerShifts = [0,0,0,0];
maxPerShifts = [5,5,3,2];